2A/RO/TP1/Ex2.sol
Problem:    
Rows:       6
Columns:    9 (9 integer, 9 binary)
Non-zeros:  18
Status:     INTEGER OPTIMAL
Objective:  CoutFormation = 95 (MINimum)

   No.   Row name        Activity     Lower bound   Upper bound
------ ------------    ------------- ------------- -------------
     1 MptBienDefinieLignes(1)
                                   1             1             = 
     2 MptBienDefinieLignes(2)
                                   1             1             = 
     3 MptBienDefinieLignes(3)
                                   1             1             = 
     4 MptBienDefinieColonnes(1)
                                   1             1             = 
     5 MptBienDefinieColonnes(2)
                                   1             1             = 
     6 MptBienDefinieColonnes(3)
                                   1             1             = 

   No. Column name       Activity     Lower bound   Upper bound
------ ------------    ------------- ------------- -------------
     1 Mpt(1,1)     *              1             0             1 
     2 Mpt(1,2)     *              0             0             1 
     3 Mpt(1,3)     *              0             0             1 
     4 Mpt(2,1)     *              0             0             1 
     5 Mpt(2,2)     *              0             0             1 
     6 Mpt(2,3)     *              1             0             1 
     7 Mpt(3,1)     *              0             0             1 
     8 Mpt(3,2)     *              1             0             1 
     9 Mpt(3,3)     *              0             0             1 

Integer feasibility conditions:

KKT.PE: max.abs.err = 0.00e+00 on row 0
        max.rel.err = 0.00e+00 on row 0
        High quality

KKT.PB: max.abs.err = 0.00e+00 on row 0
        max.rel.err = 0.00e+00 on row 0
        High quality

End of output
